(set-logic QF_S)
(declare-fun var0 () String)
(declare-fun var1 () String)
(declare-fun var2 () String)
(declare-fun var3 () String)
(declare-fun var4 () Int)
(declare-fun var5 () Int)
(assert (str.contains (str.substr (str.replace var0 var1 var2) (str.to.int var3) (str.to.int var3)) (str.replace var2 var2 var2)))
(assert (str.in.re (str.substr var0 159 var4) (re.* re.allchar)))
(assert (str.prefixof (str.substr (str.at var0 181) (str.len var1) (str.to.int var1)) (str.replace "i" var0 var3)))
(assert (str.suffixof (str.replace var2 var0 var0) (str.replace (str.at var1 var5) (str.replace var3 var1 var0) (str.replace var3 var2 var2))))
(check-sat)